NAME: instance_291
TYPE: TSP
DIMENSION: 20
EDGE_WEIGHT_TYPE: EUC_2D
NODE_COORD_SECTION
0 77.25 51.25
1 83.28 78.26
2 33.40 92.31
3 95.42 66.02
4 9.32 53.87
5 75.68 54.24
6 7.77 59.18
7 45.85 33.83
8 19.50 72.52
9 37.21 64.60
10 35.04 19.10
11 30.55 55.60
12 81.04 71.37
13 39.86 52.80
14 13.93 94.34
15 52.93 72.40
16 93.58 92.32
17 99.89 67.14
18 2.78 15.49
19 80.52 0.82
EOF
